[134400, 134400, 133570, 133570, 132760, 132760, 131940, 131940, 128750, 123890, 123890, 123890, 123890, 123890, 123890, 123890, 123890, 123890, 123890, 123890, 123890, 123890, 123890, 123890, 123890, 123890, 123890, 123890, 123890, 123890, 123890, 123890, 123890, 123890, 123890, 123890, 123890, 123890, 123890, 123890, 123890, 123890, 123260, 123260, 123260, 123260, 123260, 123260, 123260, 123260, 118670, 118260, 118260, 118260, 118260, 118260, 118260, 118260, 115870, 115870, 115870, 115110, 115110, 115110, 115110, 115110, 114690, 113430, 113430, 106260, 106260, 106260, 106260, 106260, 106260, 106260, 106260, 106260, 106260, 105860, 105860, 105860, 105860, 105860, 105860, 105860, 105860, 105860, 105860, 105860, 105860, 105860, 105860, 105860, 105860, 105860, 105860, 105860, 105860, 104380, 104380, 104380, 104380, 104380, 104380, 104380, 102280, 102280, 102280, 102280, 102280, 102280, 100390, 100390, 100390, 100390, 100390, 100390, 100390, 100390, 100390, 100390, 100390, 100390, 100390, 100390, 100390, 100390, 100390, 100140, 100140, 100140, 100140, 100140, 93700, 93700, 93700, 93700, 93700, 93700, 93700, 93700, 93700, 93700, 93700, 93700, 93700, 93700, 93700, 93700, 93700, 93700, 93700, 93700, 93700, 93700, 93700, 93700, 93700, 93700, 93700, 93700, 93700, 93700, 93700, 93700, 93700, 93700, 93700, 93700, 93700, 93700, 93700, 93700, 93700, 93700, 93700, 93700, 93700, 93700, 93700, 93700, 93700, 93700, 93700, 93700, 93700, 93700, 93700, 93700, 93700, 93700, 93700, 93700, 93700, 93700, 93700, 93700, 93700, 93700, 93700, 93700, 93700, 93700, 93700, 93700, 93700, 92800, 92800, 92800, 92800, 92800, 92800, 92800, 92800, 92800, 92800, 92800, 92800, 92800, 92800, 92800, 92800, 92800, 92800, 92800, 92800, 92800, 92800, 92800, 92800, 92800, 92800, 92800, 92800, 92800, 92800, 92800, 92800, 92800, 92800, 92800, 92800, 92800, 92800, 92800, 92800, 92800, 92800, 92800, 92800, 92800, 92800, 92800, 92800, 92800, 92800, 92800, 92800, 92800, 92800, 92800, 92800, 92800, 92800, 92800, 92800, 92800, 92800, 92800, 92800, 92800, 92800, 92800, 92800, 92800, 92800, 92800, 92800, 92800, 92800, 92800, 92800, 92800, 92800, 92800, 92800, 92800, 92800, 92800, 92800, 92800, 92800, 92800, 92800, 92800, 92800, 92800, 92800, 92800]